n_res = 4;
rc = [ 22, 16, 18, 21 ];
n_tasks = 30;
d = [ 4, 6, 5, 5, 5, 8, 8, 7, 1, 4, 5, 4, 6, 10, 2, 5, 6, 8, 10, 8, 7, 7, 7, 7, 10, 10, 10, 3, 9, 1 ];
rr = [| 0, 6, 0, 0, 0, 0, 1, 7, 1, 7, 10, 7, 0, 0, 0, 0, 10, 0, 10, 4, 0, 0, 10, 6, 7, 0, 7, 7, 9, 0
      | 0, 0, 2, 0, 0, 4, 1, 0, 0, 9, 7, 0, 0, 4, 10, 4, 0, 0, 0, 0, 0, 7, 3, 10, 0, 2, 0, 0, 5, 4
      | 10, 0, 0, 0, 1, 0, 0, 0, 0, 10, 8, 0, 10, 7, 0, 4, 4, 10, 0, 0, 3, 0, 0, 8, 0, 6, 0, 0, 0, 0
      | 6, 3, 0, 9, 9, 7, 8, 3, 0, 0, 7, 0, 5, 0, 8, 5, 8, 8, 0, 9, 0, 0, 10, 7, 0, 0, 7, 5, 8, 0 |];
suc = [ { 2 }, 
        { 1 }, 
        { 4 }, 
        { 3 }, 
        { 6 }, 
        { 5 }, 
        { 8 }, 
        { 7 }, 
        { 10 }, 
        { 9 }, 
        { 12 }, 
        { 11 }, 
        { 14 }, 
        { 13 }, 
        { 16 }, 
        { 15 }, 
        { 18 }, 
        { 17 }, 
        { 20 }, 
        { 19 }, 
        { 22 }, 
        { 21 }, 
        { 24 }, 
        { 23 }, 
        { 26 }, 
        { 25 }, 
        { 28 }, 
        { 27 }, 
        { 30 }, 
        { 29 }]; 
